
List of user-set options:

                                    Name   Value                used
                           linear_solver = ma57                  yes
                  ma57_automatic_scaling = yes                   yes
                                max_iter = 100                   yes
                             mu_strategy = adaptive              yes
                             output_file = Reusable-Launch-Vehicle-Entry-ProblemIPOPTinfo.txt  yes
                             print_level = 5                     yes
                      print_user_options = yes                   yes
                                     tol = 1e-007                yes
This is Ipopt version 3.11.0, running with linear solver ma57.

Number of nonzeros in equality constraint Jacobian...:     9048
Number of nonzeros in inequality constraint Jacobian.:      842
Number of nonzeros in Lagrangian Hessian.............:     3354

Total number of variables............................:     1262
                     variables with only lower bounds:        0
                variables with lower and upper bounds:     1262
                     variables with only upper bounds:        0
Total number of equality constraints.................:     1050
Total number of inequality constraints...............:      422
        inequality constraints with only lower bounds:        0
   inequality constraints with lower and upper bounds:      212
        inequality constraints with only upper bounds:      210

iter    objective    inf_pr   inf_du lg(mu)  ||d||  lg(rg) alpha_du alpha_pr  ls
   0 -1.0195161e+002 5.65e-001 1.28e+000   0.0 0.00e+000    -  0.00e+000 0.00e+000   0
   1 -1.0432821e+002 5.80e-001 2.37e+000  -2.2 3.32e-001    -  3.10e-001 1.00e-001h  1
   2 -1.0407677e+002 5.53e-001 9.51e+001  -2.0 2.40e-001    -  2.09e-001 2.40e-002h  1
   3 -9.8953760e+001 5.30e-002 4.95e+001  -1.9 2.11e-001    -  5.34e-001 4.76e-001h  1
   4 -9.7984768e+001 8.98e-004 1.75e+001  -1.8 1.42e-001    -  6.39e-001 1.00e+000h  1
   5 -9.9596043e+001 2.78e-003 1.63e+000  -2.2 5.53e-002    -  9.90e-001 1.00e+000h  1
   6 -1.0329606e+002 2.34e-003 1.11e+001  -2.7 2.41e-001    -  1.00e+000 6.95e-001h  1
   7 -1.0688338e+002 1.64e-001 5.55e+000  -2.4 2.64e-001    -  1.00e+000 1.00e+000h  1
   8 -1.0666681e+002 1.43e-001 3.56e+002  -2.9 5.81e-002   2.0 1.00e+000 1.22e-001h  1
   9 -1.0596921e+002 6.56e-002 3.42e+001  -2.7 7.63e-002   1.5 1.00e+000 3.37e-001h  1
iter    objective    inf_pr   inf_du lg(mu)  ||d||  lg(rg) alpha_du alpha_pr  ls
  10 -1.0518661e+002 5.63e-004 5.87e+000  -3.0 4.02e-002   1.9 1.00e+000 1.00e+000h  1
  11 -1.0596954e+002 1.24e-002 5.50e+000  -3.3 1.38e-002   1.5 9.99e-001 1.00e+000h  1
  12 -1.0616623e+002 4.56e-004 5.27e+000  -3.6 1.55e-002   1.0 1.00e+000 9.61e-001h  1
  13 -1.0632813e+002 4.52e-004 1.52e+001  -2.5 1.68e+000    -  1.00e+000 1.34e-001h  1
  14 -1.0994685e+002 1.95e-003 1.80e+000  -2.7 1.40e-001    -  1.00e+000 1.00e+000h  1
  15 -1.1078126e+002 2.38e-001 5.32e+000  -2.5 1.30e-001    -  9.90e-001 9.87e-001h  1
  16 -1.0376855e+002 3.44e-003 6.12e+000  -2.5 2.46e-001    -  8.10e-001 1.00e+000h  1
  17 -1.0943016e+002 4.29e-002 4.49e+000  -2.6 3.34e-001    -  1.00e+000 7.59e-001h  1
  18 -1.1235134e+002 3.33e-003 5.09e+000  -2.9 1.05e-001    -  1.00e+000 1.00e+000h  1
  19 -1.1730948e+002 3.06e-001 5.53e+000  -2.7 1.66e-001    -  1.00e+000 1.00e+000h  1
iter    objective    inf_pr   inf_du lg(mu)  ||d||  lg(rg) alpha_du alpha_pr  ls
  20 -1.0468159e+002 1.17e-001 4.00e+000  -2.4 3.40e-001    -  5.59e-001 1.00e+000h  1
  21 -1.0485602e+002 3.81e-003 6.25e+000  -2.6 2.24e-001    -  1.00e+000 3.12e-001h  1
  22 -1.0666242e+002 1.98e-003 2.96e+000  -2.6 1.34e-001    -  1.00e+000 1.00e+000h  1
  23 -1.1037340e+002 3.13e-004 7.67e-001  -2.6 1.48e-001    -  8.87e-001 7.90e-001h  1
  24 -1.1063771e+002 2.31e-004 1.06e+000  -2.7 5.08e-001    -  9.99e-001 2.06e-001h  1
  25 -1.1476392e+002 3.63e-003 6.03e+000  -3.2 1.05e-001    -  1.00e+000 9.57e-001h  1
  26 -1.2008899e+002 2.29e-003 4.56e+000  -3.3 3.51e-001    -  5.03e-001 5.64e-001h  1
  27 -1.2039259e+002 1.05e-003 2.52e+000  -2.7 6.02e-001    -  1.00e+000 1.34e-001h  1
  28 -1.2047314e+002 7.91e-003 1.69e+000  -2.7 3.23e-001    -  2.11e-001 1.02e-001h  1
  29 -1.2378217e+002 2.65e-003 4.60e+000  -4.2 2.63e-001    -  2.96e-001 7.63e-001h  1
iter    objective    inf_pr   inf_du lg(mu)  ||d||  lg(rg) alpha_du alpha_pr  ls
  30 -1.1814370e+002 1.25e+000 2.20e+001  -2.3 7.42e-001    -  1.00e+000 7.59e-001f  1
  31 -1.1526804e+002 1.02e+000 1.76e+001  -2.4 9.24e-001    -  5.36e-002 1.04e-001h  1
  32 -1.1350158e+002 8.68e-001 1.53e+001  -2.4 9.25e-001    -  5.76e-002 6.72e-002h  1
  33 -1.0650523e+002 3.45e-001 7.51e+000  -2.4 5.82e-001    -  1.38e-001 3.01e-001h  1
  34 -9.9744361e+001 2.31e-001 6.36e+001  -2.4 1.85e-001   0.5 1.65e-001 4.77e-001h  1
  35 -9.7307285e+001 1.34e-001 4.38e+001  -2.4 1.13e-001   0.0 7.60e-001 3.12e-001h  1
  36 -1.0014878e+002 5.34e-002 4.58e+000  -2.4 1.20e-001  -0.4 1.00e+000 8.95e-001H  1
  37 -1.0150619e+002 2.89e-003 5.42e+000  -2.4 1.52e-001    -  1.00e+000 1.00e+000h  1
  38 -1.0760627e+002 1.17e-001 5.85e+000  -2.4 1.44e-001    -  1.00e+000 1.00e+000h  1
  39 -1.0434559e+002 1.11e-003 5.96e+000  -2.4 9.24e-002    -  1.00e+000 1.00e+000h  1
iter    objective    inf_pr   inf_du lg(mu)  ||d||  lg(rg) alpha_du alpha_pr  ls
  40 -1.0597992e+002 6.01e-002 5.71e+000  -2.4 7.33e-002    -  1.00e+000 1.00e+000h  1
  41 -1.0599364e+002 5.86e-002 7.38e+002  -3.0 2.35e-002   2.7 1.00e+000 6.37e-002h  1
  42 -1.0566370e+002 2.63e-002 5.84e+001  -4.1 2.79e-002   2.2 1.00e+000 4.54e-001h  1
  43 -1.0583441e+002 9.84e-003 7.71e-001  -3.6 1.85e-002   1.7 1.00e+000 1.00e+000H  1
  44 -1.0585286e+002 2.73e-004 5.55e+000  -4.9 6.82e-003   1.3 1.00e+000 1.00e+000h  1
  45 -1.0696900e+002 4.82e-004 6.48e-001  -5.0 1.41e-002   0.8 1.00e+000 1.00e+000h  1
  46 -1.0840858e+002 9.46e-005 2.55e+000  -5.0 1.84e-002   1.2 1.00e+000 1.00e+000h  1
  47 -1.0915320e+002 5.48e-004 5.50e-001  -3.3 1.85e-002   0.7 1.00e+000 9.61e-001h  1
  48 -1.1031066e+002 2.84e-003 4.24e+002  -3.4 1.97e-002   3.0 7.21e-001 1.00e+000h  1
  49 -1.1033126e+002 2.81e-003 4.11e+002  -5.5 5.18e-003   2.5 9.82e-001 4.68e-002h  1
iter    objective    inf_pr   inf_du lg(mu)  ||d||  lg(rg) alpha_du alpha_pr  ls
  50 -1.1037062e+002 9.00e-005 3.11e+000  -5.8 4.15e-003   2.0 1.00e+000 1.00e+000h  1
  51 -1.1058486e+002 8.14e-005 1.79e+001  -3.8 4.56e-003   1.5 1.00e+000 6.66e-001h  1
  52 -1.1108810e+002 2.33e-004 5.19e-001  -4.3 1.11e-002   1.1 1.00e+000 1.00e+000h  1
  53 -1.1229934e+002 5.37e-004 6.14e-001  -3.6 2.68e-002   0.6 1.00e+000 9.80e-001h  1
  54 -1.1144149e+002 1.48e-001 9.40e+000  -2.4 1.19e-001   0.1 9.47e-001 9.87e-001f  1
  55 -1.0649933e+002 7.39e-004 3.12e+000  -2.6 1.87e-001    -  6.67e-001 9.13e-001h  1
  56 -1.0825601e+002 6.18e-002 5.59e+000  -2.6 2.18e-001    -  1.00e+000 1.00e+000h  1
  57 -1.0846857e+002 6.80e-004 5.48e+000  -2.6 1.40e-001    -  1.00e+000 1.00e+000h  1
  58 -1.0940096e+002 1.18e-002 5.47e+000  -2.6 3.44e-002    -  1.00e+000 1.00e+000h  1
  59 -1.0884969e+002 3.13e-004 5.49e+000  -2.6 3.31e-002    -  1.00e+000 1.00e+000h  1
iter    objective    inf_pr   inf_du lg(mu)  ||d||  lg(rg) alpha_du alpha_pr  ls
  60 -1.0932615e+002 6.14e-004 2.02e-001  -2.6 3.41e-002    -  1.00e+000 1.00e+000h  1
  61 -1.0896558e+002 1.87e-004 1.41e-001  -2.6 3.44e-002    -  1.00e+000 1.00e+000h  1
  62 -1.0925801e+002 1.45e-004 1.27e-001  -2.6 3.44e-002    -  1.00e+000 1.00e+000h  1
  63 -1.0927910e+002 9.02e-005 9.32e-002  -2.6 3.46e-002    -  1.00e+000 1.00e+000H  1
  64 -1.1283970e+002 3.47e-003 5.36e+000  -3.2 1.32e-001    -  9.90e-001 9.09e-001h  1
  65 -1.1964373e+002 2.53e-003 4.90e+000  -3.3 2.59e-001    -  5.66e-001 7.86e-001h  1
  66 -1.2053936e+002 1.23e-003 8.65e+000  -3.3 4.70e-001    -  3.18e-001 2.05e-001h  1
  67 -1.2114763e+002 1.06e-003 7.32e+000  -3.3 7.33e-001    -  1.88e-001 1.34e-001h  1
  68 -1.2312701e+002 1.15e-001 4.08e+000  -3.0 3.25e-001    -  1.00e+000 8.51e-001h  1
  69 -1.2351019e+002 1.17e-001 3.46e+000  -3.2 1.21e-001    -  8.29e-002 1.53e-001H  1
iter    objective    inf_pr   inf_du lg(mu)  ||d||  lg(rg) alpha_du alpha_pr  ls
  70 -1.2189699e+002 5.43e-004 4.21e+000  -3.0 2.40e-001    -  4.31e-001 6.68e-001h  1
  71 -1.2234296e+002 8.24e-004 7.74e+000  -3.5 1.52e-001    -  9.14e-001 1.98e-001h  1
  72 -1.2570583e+002 3.39e-003 5.62e+000  -3.9 2.93e-001    -  1.00e+000 9.99e-001h  1
  73 -1.2748573e+002 1.31e-001 5.38e+000  -2.9 4.64e-001    -  1.43e-001 4.53e-001h  1
  74 -1.2484399e+002 1.46e-003 5.41e+000  -3.3 1.80e-001    -  5.38e-001 1.00e+000h  1
  75 -1.2768361e+002 1.26e-003 1.93e+000  -3.6 2.50e-001    -  1.00e+000 1.00e+000h  1
  76 -1.2860389e+002 1.45e-001 5.12e+000  -3.1 3.80e-001    -  1.00e+000 6.18e-001h  1
  77 -1.2702692e+002 2.89e-002 2.64e+000  -3.3 2.78e-001    -  5.65e-001 4.67e-001h  1
  78 -1.2762708e+002 2.03e-003 4.58e+000  -3.8 2.74e-001    -  7.33e-001 8.78e-001h  1
  79 -1.2786191e+002 1.88e-003 1.04e+001  -3.7 1.85e-001    -  1.00e+000 5.43e-002h  1
iter    objective    inf_pr   inf_du lg(mu)  ||d||  lg(rg) alpha_du alpha_pr  ls
  80 -1.2811457e+002 1.69e-003 1.02e+001  -3.7 1.48e+000    -  1.25e-001 6.44e-002h  1
  81 -1.3054397e+002 1.06e-003 3.15e+000  -3.7 5.07e-001    -  4.13e-001 6.94e-001h  1
  82 -1.3110472e+002 8.94e-004 1.86e+000  -5.3 4.30e-001    -  5.59e-001 2.40e-001h  1
  83 -1.3292578e+002 1.20e-003 4.01e+000  -5.5 3.78e-001    -  4.91e-001 7.92e-001h  1
  84 -1.3349091e+002 6.95e-004 3.06e+000  -3.9 8.57e-001    -  1.00e+000 2.37e-001h  1
  85 -1.3366816e+002 6.06e-004 2.76e+000  -4.3 3.11e-001    -  9.99e-001 9.84e-002h  1
  86 -1.3286425e+002 1.82e-001 4.92e+000  -3.0 1.70e+000    -  1.00e+000 3.99e-001f  1
  87 -1.3204874e+002 1.62e-001 4.27e+000  -3.1 5.04e-001    -  1.79e-001 1.32e-001h  1
  88 -1.2595552e+002 1.03e-001 5.24e+000  -3.1 4.25e-001    -  4.17e-001 1.00e+000h  1
  89 -1.2493337e+002 3.43e-002 1.21e+000  -3.1 2.86e-001    -  1.00e+000 5.57e-001h  1
iter    objective    inf_pr   inf_du lg(mu)  ||d||  lg(rg) alpha_du alpha_pr  ls
  90 -1.2418419e+002 6.12e-004 5.17e+000  -3.1 3.21e-001    -  2.40e-001 1.00e+000h  1
  91 -1.2422678e+002 3.76e-003 2.61e+001  -3.1 2.68e-001    -  1.00e+000 2.81e-001h  2
  92 -1.2427874e+002 2.65e-002 7.05e+001  -3.3 2.65e-001    -  1.00e+000 3.11e-001H  1
  93 -1.2099805e+002 1.42e-002 6.29e+001  -2.9 4.55e-001    -  1.78e-001 3.60e-001H  1
  94 -1.2182671e+002 1.48e-003 1.70e+001  -3.3 2.41e-001    -  1.00e+000 3.57e-001h  1
  95 -1.2295217e+002 1.18e-003 1.18e+001  -3.3 2.93e-001    -  6.11e-001 3.06e-001h  1
  96 -1.2492513e+002 1.07e-003 4.01e+000  -3.3 6.82e-001    -  2.68e-001 6.70e-001h  1
  97 -1.2633846e+002 4.46e-004 1.66e+000  -3.3 5.09e-001    -  9.04e-001 6.24e-001h  1
  98 -1.2747335e+002 3.54e-004 1.25e-001  -3.3 2.86e-001    -  1.00e+000 1.00e+000h  1
  99 -1.2756291e+002 3.77e-005 3.26e+000  -3.0 1.35e-002   2.3 1.00e+000 1.00e+000h  1
iter    objective    inf_pr   inf_du lg(mu)  ||d||  lg(rg) alpha_du alpha_pr  ls
 100 -1.2762404e+002 2.19e-005 9.20e+000  -3.6 8.04e-002    -  1.00e+000 7.17e-001h  1

Number of Iterations....: 100

                                   (scaled)                 (unscaled)
Objective...............: -7.6059112621268641e+000  -1.2762403623647464e+002
Dual infeasibility......:  9.1965170130575302e+000   1.5431374099355526e+002
Constraint violation....:  2.1885998836903746e-005   2.1885998836903746e-005
Complementarity.........:  3.5576505321663148e-004   5.9695900305171586e-003
Overall NLP error.......:  9.1965170130575302e+000   1.5431374099355526e+002


Number of objective function evaluations             = 109
Number of objective gradient evaluations             = 101
Number of equality constraint evaluations            = 109
Number of inequality constraint evaluations          = 109
Number of equality constraint Jacobian evaluations   = 101
Number of inequality constraint Jacobian evaluations = 101
Number of Lagrangian Hessian evaluations             = 100
Total CPU secs in IPOPT (w/o function evaluations)   =      0.849
Total CPU secs in NLP function evaluations           =    129.992

EXIT: Maximum Number of Iterations Exceeded.
XIT: Maximum Number of Iterations Exceeded.
